329 243
388 44
319 298
285 104
193 64
220 210
129 170
318 163
351 496
172 145
185 56
483 297
163 16
6 197
213 469
299 239
232 423
101 337
478 248
62 16
415 355
187 347
44 418
185 152
296 293
388 325
393 408
82 253
451 49
308 448